S = 9;
start = [|71,10,0,25,0,0,0,0,0,0,0,0,0,0,0,0,0,0,0,14,0,43,0,0,0,0,0,21,0,0,0,0,0,0,0,0,11,0,0,0,0,0,0,0,0,0,8,0,72,0,0,0,0,0,0,0,0,0,7,9,0,0,0,0,0,52,0,75,0,61,0,29,0,0,0,0,39,28,77,0,0|
0,65,67,0,0,40,51,32,41,0,0,0,0,0,0,76,0,0,0,0,0,0,0,0,0,0,0,0,0,10,0,12,35,79,0,0,0,0,0,0,52,0,0,30,57,42,69,0,0,0,0,0,0,0,0,0,0,0,63,0,0,25,0,0,62,15,0,0,0,0,0,0,0,2,0,60,80,0,0,9,0|
0,0,0,0,0,0,0,39,0,25,74,0,0,0,0,0,0,0,0,32,38,9,65,0,0,26,0,0,43,0,0,0,0,0,0,0,0,64,0,0,71,0,0,0,0,0,0,0,0,0,0,0,0,0,77,0,0,0,0,17,60,0,0,0,1,0,0,0,0,0,0,0,0,0,0,76,0,0,0,0,0|
0,0,0,0,0,59,0,0,0,0,0,0,0,0,0,0,0,0,0,0,0,0,0,0,0,0,0,0,0,28,0,0,0,0,0,1,0,0,2,7,0,47,0,0,0,0,0,0,0,0,0,0,0,0,0,0,0,41,53,31,0,39,0,0,0,0,0,0,0,0,68,37,0,0,33,0,0,0,0,0,0|
0,0,27,0,0,0,0,0,0,0,65,47,0,0,0,0,0,0,0,0,0,54,0,0,0,0,0,11,0,66,0,0,0,0,34,0,61,0,0,23,0,0,0,0,76,0,0,0,0,0,0,0,0,0,24,0,0,0,0,0,0,4,0,0,0,0,0,0,59,0,0,0,0,0,0,32,0,0,0,42,0|
0,0,0,0,34,52,0,0,0,53,71,0,0,9,0,0,0,0,0,0,0,0,0,0,23,0,0,0,0,0,0,0,0,60,73,0,0,0,14,63,0,46,0,17,0,10,0,0,0,0,0,0,0,0,15,0,59,0,0,0,0,26,76,54,0,40,0,0,0,0,0,0,0,0,0,0,0,5,0,0,0|
80,24,0,0,17,0,0,0,26,0,77,0,0,81,0,0,0,22,0,2,0,0,0,0,0,0,0,0,0,0,0,0,0,50,0,0,0,0,0,33,0,0,0,78,0,0,0,0,79,0,0,0,0,0,0,0,43,32,0,0,0,70,29,28,73,0,0,34,0,0,25,53,0,0,72,0,0,0,0,0,0|
0,0,75,0,0,0,2,0,0,0,0,0,0,0,0,0,0,68,0,0,42,0,0,0,21,0,0,0,44,0,0,0,0,0,0,6,26,0,0,0,0,60,0,0,0,0,0,0,0,0,0,0,0,0,14,0,0,61,10,22,0,0,0,49,0,0,0,0,0,81,78,69,0,0,0,0,4,0,63,0,0|
44,0,0,0,0,69,0,0,20,0,0,0,0,8,0,0,0,0,0,0,0,0,0,52,0,61,0,0,0,25,0,0,0,0,41,0,39,0,0,0,0,0,0,0,0,0,12,0,0,0,62,0,0,0,0,0,0,13,0,49,40,0,0,0,0,0,0,0,0,0,67,0,0,74,0,0,0,0,0,0,0|
0,0,3,24,0,0,0,0,0,0,33,0,0,0,0,0,35,0,0,0,0,0,0,0,0,60,0,0,0,0,62,25,0,0,79,0,0,0,0,0,0,0,0,54,0,0,0,0,0,0,0,41,0,0,0,0,0,0,0,0,0,0,0,0,0,0,0,0,0,0,0,0,0,47,0,0,0,32,56,49,0|
0,0,0,78,21,0,0,0,72,0,5,0,0,0,0,0,0,0,0,0,0,0,0,0,0,38,0,41,0,0,0,0,0,0,0,0,0,0,0,0,0,0,0,0,0,0,0,0,0,67,0,0,0,0,0,0,0,0,0,0,0,0,0,0,0,0,0,0,0,0,0,0,0,0,0,29,0,39,0,0,11|
0,33,0,2,0,0,0,0,0,0,76,0,0,0,0,0,0,0,0,0,0,0,0,0,22,0,0,54,0,0,35,0,0,0,72,0,70,0,0,0,0,0,0,0,0,0,0,25,0,0,0,20,0,0,4,0,0,0,0,0,0,0,0,0,0,0,0,0,0,0,0,0,0,0,45,80,0,0,0,0,78|
0,4,0,0,76,0,0,0,80,0,28,0,2,0,0,0,0,0,0,0,0,0,69,55,0,73,0,78,0,0,0,0,0,0,0,0,0,0,7,0,39,0,0,63,0,35,0,22,0,0,0,0,36,0,0,0,0,0,0,48,14,3,0,0,59,0,0,0,62,0,0,12,0,0,0,0,0,0,0,0,0|
0,0,0,0,0,0,73,0,70,0,0,0,0,0,0,0,0,0,0,0,6,0,0,0,9,30,0,0,0,0,0,0,0,0,61,42,0,0,24,0,0,50,29,0,0,0,76,0,0,0,0,0,0,0,0,0,0,0,0,0,0,0,10,75,0,0,0,0,0,0,0,52,0,0,0,63,0,0,0,0,0|
0,0,52,18,41,0,0,0,0,0,63,0,0,0,0,0,0,0,0,62,0,0,0,14,65,0,29,0,60,0,0,0,0,0,0,0,10,0,74,0,0,0,20,0,0,0,31,5,0,0,54,0,0,0,0,43,36,0,0,0,0,0,0,47,0,0,0,68,32,0,0,30,0,0,0,0,0,0,0,0,46|
0,0,77,61,0,10,22,0,1,0,18,0,0,13,0,14,0,0,0,47,0,0,0,64,0,54,0,0,0,0,0,0,0,0,0,0,49,52,0,43,0,0,0,9,60,0,0,0,0,0,0,8,0,0,40,0,0,0,0,39,73,0,0,0,0,0,0,0,63,0,0,0,0,65,0,0,0,71,0,69,0|
0,36,0,0,0,0,0,0,46,7,0,0,0,0,0,0,21,0,0,57,0,0,0,0,0,0,0,0,0,0,12,0,0,0,43,0,0,81,0,0,0,0,0,76,0,0,4,0,80,0,33,0,0,0,0,0,0,0,0,0,0,0,60,70,0,25,66,0,0,0,73,0,0,13,0,0,0,0,0,0,0|
0,0,0,0,0,20,0,0,0,62,0,66,8,0,0,0,9,54,0,0,0,52,0,0,0,58,61,0,0,29,0,51,0,0,0,0,0,0,0,0,0,0,0,0,0,13,0,0,0,14,0,0,0,12,0,33,0,0,0,0,46,0,81,0,0,0,2,77,0,0,0,7,0,0,0,0,0,0,0,0,68|
0,46,0,8,0,0,0,0,0,0,0,0,0,0,76,0,0,0,0,0,0,0,70,0,0,65,0,0,0,0,0,0,0,0,0,0,56,47,0,0,0,14,0,0,0,0,0,0,0,0,0,0,0,0,63,0,0,0,27,52,30,0,0,0,0,0,0,45,0,12,0,0,0,0,0,21,0,0,0,0,0|
57,0,0,0,0,0,23,0,0,13,0,35,0,21,71,64,69,0,0,42,0,0,0,32,75,0,0,0,0,0,66,0,41,0,0,0,0,0,1,44,12,0,0,0,0,0,9,0,0,0,0,0,11,0,0,0,0,0,0,0,0,0,0,0,0,0,0,0,81,0,0,0,0,0,0,0,0,0,10,0,0|
0,0,0,0,0,81,0,0,44,0,0,27,0,0,0,20,0,23,0,0,0,0,0,68,0,15,50,18,28,0,33,0,0,34,0,36,32,0,0,0,63,17,0,51,0,0,1,0,0,0,0,0,26,0,55,0,0,49,29,0,0,0,78,6,0,0,0,0,0,0,0,0,0,0,0,0,0,0,0,47,0|
0,0,0,11,31,0,0,51,0,0,0,0,0,0,28,0,0,0,17,1,0,0,72,0,0,0,0,74,0,0,0,0,0,0,0,0,77,4,0,0,0,0,0,0,0,0,0,0,46,0,0,0,0,0,0,0,3,0,0,0,0,0,0,55,0,0,0,0,0,0,71,0,0,0,0,0,44,0,35,0,0|
0,0,0,0,13,0,0,0,0,0,0,0,0,0,0,0,0,11,0,0,0,63,0,0,0,0,0,0,0,24,0,0,0,0,52,73,0,0,0,0,29,76,0,0,0,0,0,48,0,0,0,75,56,0,0,0,32,0,0,0,37,0,68,57,0,0,38,0,0,0,0,10,0,0,0,0,0,0,0,0,0|
0,0,0,0,0,0,30,0,12,0,0,0,0,0,0,10,0,0,27,0,0,8,0,0,44,0,0,0,1,0,55,0,5,0,0,0,0,0,0,0,0,40,0,52,0,0,0,0,0,0,0,0,0,0,0,0,0,0,0,21,0,0,0,0,65,0,0,0,46,19,0,0,0,0,0,57,60,0,0,0,0|
0,0,0,0,36,0,0,0,77,0,0,0,0,0,0,0,0,0,0,0,0,30,0,45,0,0,0,0,0,2,0,43,0,0,0,0,21,0,0,58,81,0,0,61,0,79,0,0,0,0,0,0,0,0,0,0,0,0,0,24,0,0,69,0,0,0,0,0,0,0,0,0,0,0,0,0,0,0,0,0,0|
0,68,0,0,0,0,0,0,0,0,56,0,19,0,0,54,0,37,0,0,0,0,0,0,0,71,4,0,0,0,0,0,39,0,0,0,16,0,0,0,0,0,24,0,0,0,0,0,0,0,63,0,0,0,0,0,0,0,41,0,0,0,0,0,0,0,0,0,27,58,0,0,0,0,0,0,0,0,0,0,0|
0,59,0,0,0,0,0,0,0,0,0,0,0,0,26,0,47,0,0,33,0,0,0,0,0,0,0,19,6,0,0,0,0,69,0,0,0,0,0,0,0,55,10,0,0,29,0,0,0,8,0,0,0,0,0,0,51,0,67,74,0,0,0,0,0,0,0,0,0,0,0,0,0,0,0,0,0,0,58,0,0|
0,0,0,0,0,0,0,0,0,0,0,0,0,0,0,0,78,0,0,0,0,0,0,0,0,0,0,0,0,0,0,0,0,0,0,0,0,0,0,0,31,0,19,0,0,0,0,0,0,0,39,7,0,0,0,60,0,3,0,25,21,0,0,0,0,0,70,0,0,0,0,0,80,14,0,0,0,76,0,0,0|
0,0,0,0,0,68,0,0,0,0,0,0,0,0,0,23,0,0,0,0,0,0,0,0,0,0,0,0,0,0,69,0,0,45,0,0,0,0,4,0,0,0,0,0,0,0,0,0,41,0,0,0,1,0,28,14,0,0,36,6,0,74,0,0,0,0,0,0,78,0,0,0,71,31,63,0,0,0,0,3,0|
0,0,0,0,0,0,0,35,0,0,0,0,0,0,15,0,0,0,0,70,0,0,37,9,0,0,3,0,0,40,0,0,0,0,0,0,69,74,0,0,0,16,0,72,0,0,0,0,0,0,0,0,21,55,0,0,0,0,0,0,0,32,0,0,0,0,0,0,0,0,0,0,0,0,0,0,0,0,0,51,29|
0,0,0,0,0,0,0,0,0,0,79,0,0,0,18,0,31,0,0,0,0,0,0,0,40,0,0,0,0,0,78,14,0,0,0,0,0,0,0,0,0,0,32,0,0,0,0,0,0,52,0,0,0,0,0,0,0,0,0,0,0,0,0,0,0,37,9,0,0,0,0,0,0,6,0,11,0,0,0,0,0|
0,0,0,0,77,0,0,0,0,14,0,0,0,0,0,0,0,25,69,0,52,34,26,0,0,0,0,0,0,13,0,0,0,0,0,0,0,0,0,0,78,0,23,0,0,0,20,0,0,0,79,62,0,0,0,50,0,0,0,0,0,19,0,0,0,0,0,0,0,0,0,0,59,0,0,0,0,37,0,0,0|
0,0,0,0,0,0,0,0,0,0,0,0,0,0,0,0,0,0,0,0,0,0,0,20,0,0,0,0,0,0,38,3,34,0,0,0,0,0,0,0,0,0,65,58,0,0,0,0,0,0,0,0,0,0,0,0,30,42,0,0,0,0,0,23,0,0,0,0,0,17,0,0,39,54,0,0,0,74,0,0,72|
42,0,0,0,59,0,46,47,58,0,45,0,0,16,0,0,0,65,0,71,31,0,41,39,51,0,0,57,0,0,2,0,72,0,0,0,0,0,0,0,66,0,0,0,0,0,0,0,0,0,0,0,3,0,0,0,0,0,0,0,64,0,0,0,0,0,0,0,0,0,0,0,0,0,0,0,0,0,0,0,0|
45,15,0,0,0,0,0,0,22,0,0,0,0,0,0,80,0,0,0,0,0,0,0,0,0,0,0,0,0,17,41,0,70,0,0,61,0,0,0,0,0,79,21,42,0,0,33,0,0,18,0,59,0,0,0,0,0,0,0,0,0,0,0,0,57,0,0,0,71,32,40,0,0,0,0,69,0,56,0,10,47|
0,31,65,0,0,0,71,0,0,0,0,0,0,0,0,0,0,0,0,0,0,0,11,0,0,0,0,0,0,0,0,21,0,0,0,0,0,0,0,0,0,52,0,0,12,0,42,0,0,0,0,0,0,0,0,0,0,0,0,0,0,0,0,0,3,26,0,0,0,0,0,0,0,0,36,0,0,73,0,0,0|
53,17,72,0,23,0,0,0,0,0,0,43,11,0,62,63,0,0,0,13,80,0,0,0,0,0,0,0,66,0,0,20,0,0,0,0,57,0,0,0,0,74,0,0,0,0,0,0,0,0,0,0,59,44,58,0,0,0,0,0,0,0,0,0,0,0,0,0,60,0,0,0,0,0,0,0,0,0,0,45,18|
43,0,25,0,0,0,0,63,0,0,0,0,0,0,0,34,0,0,0,0,0,0,0,31,0,0,0,0,0,0,0,0,0,0,4,23,0,26,48,32,0,0,36,0,0,0,0,75,0,0,0,65,0,0,0,0,0,0,0,0,0,0,0,0,0,0,0,0,0,0,0,0,0,0,0,54,0,80,28,0,0|
0,0,0,0,0,0,0,0,42,0,68,0,0,0,0,0,0,0,0,0,0,0,0,0,0,0,65,0,0,0,0,0,6,0,10,0,0,0,0,0,76,0,0,0,0,0,0,0,78,0,81,0,0,0,0,0,20,0,0,0,2,18,0,29,58,47,0,0,0,0,0,0,5,0,0,0,0,0,38,0,0|
0,0,0,0,0,0,65,0,0,0,0,0,0,30,0,0,0,0,0,0,0,36,0,0,0,74,0,0,0,0,19,0,18,0,0,0,0,0,0,0,70,0,80,0,0,0,0,0,0,0,0,0,0,68,0,0,0,0,0,0,0,0,38,0,0,0,0,0,0,16,0,45,0,49,0,0,0,72,0,0,0|
0,0,0,0,0,0,0,0,0,18,0,0,0,0,0,0,0,0,0,34,0,0,0,0,0,0,0,0,0,0,0,71,0,0,0,0,0,0,0,0,0,31,0,0,30,0,0,0,0,0,0,0,72,0,0,0,0,0,0,36,41,0,0,21,0,0,0,0,0,65,0,0,0,0,0,0,67,75,0,0,0|
0,0,0,0,0,0,0,0,0,0,0,0,10,0,0,57,0,0,0,0,0,53,0,77,0,0,0,0,0,0,0,0,27,0,65,0,0,37,0,0,0,0,72,59,0,61,41,63,0,0,0,11,0,29,60,0,6,0,4,0,0,0,0,0,0,0,0,0,31,0,0,0,0,0,0,0,0,0,0,0,0|
0,0,0,0,22,0,0,0,54,0,0,0,72,42,0,2,0,0,66,20,43,6,0,0,0,0,0,0,0,30,13,56,11,0,0,47,0,0,0,0,45,0,0,62,0,0,0,0,0,0,0,0,0,0,0,0,0,0,0,0,0,0,0,0,0,0,0,37,0,0,4,0,0,0,0,39,0,0,0,0,0|
0,0,41,0,8,0,0,0,0,0,35,0,0,0,0,0,0,0,0,0,0,0,0,0,0,0,0,0,0,0,0,0,0,0,0,0,0,0,0,0,0,0,0,33,0,0,0,0,0,0,0,0,12,45,0,0,0,0,0,47,0,0,0,0,0,0,0,0,0,0,75,14,32,0,0,0,0,0,0,0,0|
0,16,0,0,0,0,44,4,0,0,0,0,0,66,0,0,0,0,0,39,0,0,61,0,81,0,64,0,0,67,0,0,60,0,0,0,0,0,0,0,0,0,0,0,0,0,0,0,0,0,0,49,0,46,0,0,0,72,0,0,48,0,0,22,0,0,0,0,0,0,13,0,0,0,0,0,0,0,0,0,0|
0,0,0,0,0,49,0,0,0,0,0,50,0,0,0,0,0,0,0,52,0,0,0,0,0,0,0,0,0,0,0,0,0,0,0,0,47,0,34,0,13,0,0,31,0,0,78,0,0,0,0,44,38,23,0,0,0,0,0,0,0,0,0,0,0,29,68,0,0,0,77,28,19,0,17,0,0,3,0,76,0|
0,0,0,6,0,35,72,0,0,0,0,0,71,0,0,0,0,31,42,36,5,45,0,0,0,0,0,0,0,0,0,0,0,0,0,0,0,0,0,0,0,0,0,0,0,0,0,0,0,0,0,0,77,8,0,0,0,0,0,56,0,0,0,0,0,0,0,0,0,47,53,0,0,0,0,0,32,10,33,0,0|
0,61,0,0,0,0,0,13,0,0,0,0,69,0,0,0,0,0,0,0,0,0,0,0,0,0,0,0,0,0,0,0,0,0,0,0,30,0,51,0,0,0,0,0,0,0,0,65,0,73,0,0,0,0,0,0,0,14,0,0,0,40,0,39,0,0,0,0,0,0,0,0,0,0,0,0,0,0,72,0,80|
65,0,0,0,0,53,0,0,0,0,0,0,45,0,0,17,0,21,0,0,0,0,0,57,2,0,0,56,0,79,0,0,0,73,0,22,58,0,0,0,0,0,0,0,0,48,0,29,50,0,0,0,75,0,30,0,0,0,0,0,0,0,0,33,0,78,0,0,0,0,0,0,0,0,0,0,0,0,0,0,0|
33,0,0,0,0,0,0,0,0,0,0,0,0,0,0,81,0,0,61,0,0,0,0,3,0,66,0,0,0,0,0,0,0,0,0,0,0,0,0,0,0,0,0,0,0,0,0,0,49,0,0,0,0,0,0,0,0,0,0,0,54,55,0,0,0,65,23,0,0,0,0,0,0,0,0,0,62,0,0,75,56|
0,0,0,0,0,0,0,34,0,73,10,0,49,0,0,0,0,0,58,0,79,0,0,0,31,0,0,0,0,19,0,0,30,0,0,0,0,0,0,0,0,0,0,0,0,0,0,0,0,0,0,0,0,53,13,0,46,0,33,0,0,0,0,43,0,0,0,0,0,0,0,0,0,0,0,0,11,0,0,0,0|
0,0,0,0,0,0,0,0,0,0,0,0,0,0,0,0,0,0,0,0,0,0,0,0,0,0,0,17,0,0,0,0,0,75,0,0,0,0,0,0,0,0,0,0,0,0,0,52,51,36,0,0,30,0,0,0,4,0,0,0,0,0,0,9,0,12,0,44,0,0,0,0,0,0,0,0,0,0,0,0,0|
0,0,0,0,0,0,0,26,0,0,0,0,0,0,0,78,0,0,0,0,0,13,0,0,50,0,0,0,76,0,53,0,0,0,0,11,0,0,29,0,0,0,0,0,2,4,0,0,0,0,27,3,0,0,0,0,0,0,74,0,0,49,18,38,0,0,0,0,15,0,0,0,68,1,0,9,0,0,0,0,0|
0,0,0,0,0,0,0,0,0,41,0,5,0,0,55,65,36,0,30,0,0,0,0,0,0,0,0,0,4,0,0,0,0,0,0,18,0,0,0,0,0,0,0,70,0,0,6,0,0,0,0,2,0,0,0,0,50,0,0,77,0,0,0,0,0,0,16,0,0,0,69,60,0,0,37,0,0,0,0,0,0|
0,0,0,0,0,0,0,48,0,0,0,0,0,0,0,0,0,32,0,0,0,0,0,5,0,0,0,0,0,0,79,0,0,53,0,0,0,0,0,0,0,0,57,0,0,0,0,34,0,0,0,0,0,47,0,0,0,0,0,0,0,0,67,0,0,69,0,0,0,8,29,0,0,44,9,0,0,0,0,0,0|
0,7,12,0,0,0,0,0,0,48,0,56,0,36,68,0,0,0,75,0,0,0,0,0,0,0,0,0,0,0,3,54,0,27,0,0,0,0,0,25,40,10,0,0,0,0,0,0,0,0,0,0,52,0,0,0,71,0,21,0,0,77,0,0,0,0,0,61,0,0,20,0,0,0,0,0,0,31,0,0,0|
0,0,0,0,0,0,0,0,0,0,0,0,0,0,0,0,0,0,0,0,67,0,0,0,53,0,74,32,0,0,0,0,0,0,0,0,0,0,0,1,0,0,0,0,71,0,0,81,0,0,0,0,0,0,0,0,0,0,5,0,0,0,0,0,0,0,0,19,0,0,39,0,0,0,0,0,72,64,0,0,0|
0,0,0,5,0,0,0,0,0,58,0,28,0,0,0,0,0,0,0,61,0,0,0,0,0,0,0,0,0,0,0,0,0,0,0,0,0,0,0,0,0,0,0,0,0,12,0,50,0,78,0,0,16,0,0,0,0,0,0,0,0,0,0,0,6,0,13,0,74,0,0,0,43,7,32,0,0,17,0,0,0|
0,0,0,0,0,0,0,0,0,0,0,12,24,0,51,0,0,0,0,0,0,0,0,8,0,0,0,0,0,0,0,0,0,58,0,0,0,0,0,52,0,0,0,0,0,0,0,0,45,0,0,35,0,0,69,0,0,0,18,0,0,0,0,0,68,0,44,0,0,0,3,0,0,0,0,0,0,0,0,0,0|
0,0,80,0,58,0,0,0,0,0,0,0,66,62,0,0,0,0,13,0,0,0,0,0,0,0,0,0,0,0,23,0,20,61,0,4,0,0,0,30,0,0,0,0,0,69,0,0,0,0,0,0,71,0,0,0,0,29,0,26,0,0,0,0,0,0,0,0,0,0,0,0,0,0,0,81,53,21,0,0,0|
0,0,0,0,0,0,76,10,0,69,0,0,59,0,0,0,0,0,0,18,0,0,0,0,0,0,0,0,0,0,0,74,0,0,0,0,6,0,0,0,0,0,0,0,0,36,0,0,62,37,0,0,0,0,0,0,48,0,0,0,0,0,0,0,49,22,0,0,0,0,0,0,42,0,0,0,0,4,0,0,0|
0,0,66,0,0,0,0,46,0,0,0,0,0,0,0,0,0,0,0,49,0,0,0,63,0,77,0,13,0,0,0,0,0,0,0,0,0,45,0,0,0,0,54,0,0,0,0,0,0,0,0,0,53,39,0,0,0,0,0,0,0,0,0,0,0,72,0,0,0,0,81,0,0,0,0,0,0,0,0,0,0|
0,0,0,0,0,22,50,0,35,0,61,0,0,0,0,0,0,0,0,0,0,55,0,0,0,0,0,0,0,0,0,0,2,0,0,0,41,0,0,28,0,4,0,0,0,0,0,6,0,20,75,0,68,0,0,59,80,0,0,0,19,43,17,0,45,0,0,0,0,0,0,0,0,0,0,0,0,0,0,39,0|
0,0,0,0,0,0,0,0,0,0,0,0,0,0,0,53,0,81,65,0,0,0,0,0,0,24,0,0,0,0,0,0,66,40,0,0,0,0,0,47,0,0,0,1,0,0,0,0,5,0,0,0,0,0,80,0,0,0,0,0,0,0,0,0,0,0,0,0,0,0,0,0,0,0,0,0,0,15,6,0,0|
0,28,21,0,26,0,13,0,50,0,0,71,0,0,70,72,59,0,0,0,0,0,0,1,0,0,0,0,0,0,0,30,0,0,44,75,0,0,78,0,34,0,0,0,36,0,0,69,0,0,0,0,0,0,0,0,0,0,0,63,77,0,0,19,0,0,61,0,0,0,0,0,0,0,0,0,18,0,0,0,0|
0,0,0,30,0,65,0,0,0,0,0,0,32,17,0,0,10,0,37,0,27,0,0,0,41,0,0,69,0,0,0,28,3,0,51,0,0,0,0,77,0,0,66,0,0,21,0,0,0,0,72,0,6,36,0,11,0,0,42,0,0,20,0,0,0,0,0,0,12,5,0,0,0,0,0,50,0,78,0,0,0|
0,45,0,56,0,0,0,15,0,0,0,0,23,0,0,0,42,0,0,0,53,0,0,0,0,3,0,0,59,0,0,0,0,0,47,0,0,0,0,0,0,0,0,0,0,0,51,73,31,0,0,0,0,0,0,0,0,0,0,0,0,36,0,0,55,0,0,0,0,0,0,0,2,67,0,0,0,0,66,0,0|
0,0,0,0,0,19,0,74,0,0,0,68,0,0,0,0,0,36,51,0,0,40,0,0,0,0,0,0,0,0,0,0,0,55,16,80,0,0,15,0,20,0,0,0,0,0,0,0,0,0,3,30,0,0,0,0,0,0,0,0,13,0,0,0,0,0,0,73,0,42,0,67,0,0,0,0,0,0,0,0,0|
67,55,0,0,0,0,0,0,0,0,0,0,0,0,49,0,0,0,0,0,0,0,0,0,0,0,0,0,0,0,0,8,0,0,0,0,0,0,0,0,0,0,0,0,0,0,0,0,0,0,25,58,0,0,0,0,0,0,0,0,27,0,0,71,31,0,0,0,0,0,0,0,0,35,0,0,63,0,53,0,0|
0,0,0,0,0,0,0,0,0,0,0,0,74,0,0,0,0,0,0,19,0,0,0,0,0,0,0,0,0,34,0,0,0,0,0,0,0,0,0,0,0,0,48,0,14,77,0,0,12,49,0,0,79,0,0,0,0,0,0,0,0,81,24,0,0,0,65,0,0,0,0,0,13,28,69,0,3,0,0,32,10|
0,0,43,0,79,0,0,0,0,0,13,0,0,0,0,18,0,0,0,45,0,70,0,0,62,0,0,6,0,0,0,0,0,0,0,0,65,0,0,8,0,0,17,60,55,78,52,0,0,0,0,1,0,7,0,0,0,4,0,59,0,69,0,51,0,0,0,0,0,0,0,39,0,0,73,0,0,0,44,0,0|
0,0,0,0,0,44,0,18,0,0,25,0,0,39,0,0,0,50,60,81,0,4,0,0,0,13,0,0,0,0,0,37,0,0,0,17,0,0,0,0,0,0,0,0,0,54,0,0,0,0,0,9,47,0,0,0,57,38,3,0,0,0,0,72,0,0,0,40,0,0,0,0,0,0,0,0,0,0,0,12,0|
0,13,22,0,0,0,0,0,0,0,0,41,0,0,0,45,0,0,0,0,0,0,0,80,0,0,0,0,0,0,0,0,51,0,0,0,0,11,0,0,0,0,0,21,0,0,0,0,19,34,0,0,0,0,0,40,47,0,0,0,0,0,0,0,0,39,0,0,0,0,0,0,0,0,0,16,0,52,0,59,67|
0,0,0,0,0,0,0,0,11,43,48,0,53,0,0,19,0,0,0,31,0,0,0,0,34,67,0,27,0,0,0,0,69,41,0,0,0,51,77,62,0,5,0,0,0,0,0,0,0,0,0,0,76,0,0,0,0,0,0,0,0,0,0,0,0,0,0,0,56,0,0,0,0,0,0,2,0,0,0,0,0|
0,0,0,0,0,0,0,0,61,0,0,0,80,0,0,58,73,0,0,0,0,0,0,0,0,51,13,0,0,0,30,0,0,0,0,38,78,0,43,14,0,0,0,0,0,0,0,0,0,75,0,0,0,0,0,0,0,0,25,55,36,71,0,0,0,0,0,0,0,0,0,0,0,0,0,10,0,0,42,0,0|
0,0,0,0,0,0,0,0,0,0,52,0,0,0,0,0,0,63,0,0,0,0,0,0,0,0,0,0,0,0,0,0,55,0,60,0,0,0,0,0,0,0,76,0,0,0,0,0,0,70,0,0,0,2,0,0,0,0,0,0,0,0,0,78,0,0,0,0,0,0,61,75,69,25,0,0,0,0,0,0,0|
41,0,0,0,74,0,27,0,0,0,0,0,0,0,0,75,0,0,0,0,0,0,62,0,0,0,0,0,56,0,0,0,0,0,0,0,0,0,0,0,0,0,45,0,29,0,0,0,0,58,0,0,0,0,0,0,0,0,0,0,0,50,7,0,0,0,0,0,0,14,66,76,0,0,0,0,0,0,32,0,0|
0,0,33,0,0,50,0,0,0,81,0,0,13,0,0,0,0,0,0,0,1,0,0,0,0,0,0,0,48,54,0,0,0,0,0,32,0,0,0,0,0,0,0,47,0,0,30,0,0,0,0,0,0,0,0,0,18,77,0,73,0,0,2,0,0,0,0,58,0,0,0,0,56,0,0,0,0,0,0,0,0|
0,0,0,0,0,0,0,25,0,72,0,0,12,61,0,0,32,0,0,0,0,0,0,0,0,0,0,0,0,0,0,0,0,21,0,0,0,0,0,0,0,53,0,0,0,0,0,0,0,0,16,0,0,35,0,0,0,33,0,0,0,0,0,42,0,0,0,0,0,0,0,0,0,0,0,0,0,0,0,0,0|
0,52,0,0,0,0,0,0,17,76,0,0,0,0,0,15,0,0,74,0,0,0,0,0,0,0,0,0,40,0,0,0,58,0,75,0,19,0,0,13,0,0,0,0,0,0,0,0,0,0,56,18,0,0,41,69,0,0,0,0,0,0,0,0,21,0,0,0,0,0,0,0,0,0,0,31,33,43,8,0,0|
0,0,0,0,0,77,0,0,0,0,1,0,0,0,0,0,60,0,0,0,37,0,0,0,0,0,0,0,0,9,0,0,71,0,0,0,59,0,0,0,0,0,0,0,0,40,0,0,0,72,0,25,0,0,0,0,0,0,76,0,29,23,58,44,7,0,52,8,0,0,0,0,49,0,0,0,0,0,0,0,0|];